matp6640/spr22/hw6sol2022/ampl/q2.dat
param n:=2;

param C : 1 2 :=
       1  1 0
       2  0 0;

param m := 2;

param b := 1 2 2 2;

param A := 
  [1,*,*]: 1 2 :=
        1  -3 0
        2  0  1

  [2,*,*]: 1  2 :=
        1  4  1
        2  1  0
;
